Minimize
  - 15 y_0 - 28 y_1 - 43 y_2 - 49 y_4 - 50 y_5 - 42 y_6 - 53 y_7 - 46 y_8
   - 47 y_9 - 38 y_10 - 41 y_11 - 15 y_12 - 58 y_13 - 51 y_14 - 10 y_15
   - 38 y_16 - 32 y_17 - 33 y_18 - 52 y_19 - 23 y_20 - 16 y_21 - 16 y_22
   - 14 y_23 - 33 y_24 - 13 y_25 - 51 y_26 - 20 y_27 - 21 y_28 - 55 y_29
   - 49 y_30 - 41 y_31 - 37 y_32 - 45 y_33 - 20 y_34 - 46 y_35 - 17 y_36
   - 32 y_37 - 30 y_38 - 41 y_39 - 29 y_40 - 33 y_41 - 47 y_42 - 39 y_43
   - 22 y_44 - 32 y_45 - 42 y_46 - 24 y_47 - 28 y_48 - 26 y_49 + 59 x_0_2
   + 51 x_0_16 + 22 x_0_20 + 26 x_0_21 + 17 x_0_25 + 32 x_0_27 + 34 x_0_28
   + 80 x_0_29 + 11 x_0_34 + 14 x_0_36 + 36 x_0_41 + 61 x_0_43 + 29 x_0_47
   + 49 x_1_6 + 52 x_1_7 + 31 x_1_11 + 61 x_1_13 + 35 x_1_16 + 54 x_1_19
   + 27 x_1_20 + 45 x_1_21 + 47 x_1_26 + 44 x_1_28 + 19 x_1_34 + 62 x_1_39
   + 3 x_1_40 + 14 x_1_41 + 61 x_1_46 + 29 x_1_47 + 11 x_1_49 + 49 x_2_7
   + 46 x_2_11 + 79 x_2_12 + 42 x_2_17 + 81 x_2_23 + 88 x_2_24 + 84 x_2_27
   + 57 x_2_28 + 32 x_2_30 + 25 x_2_31 + 76 x_2_33 + 56 x_2_34 + 22 x_2_42
   + 39 x_2_43 + 44 x_2_45 + 91 x_2_46 + 49 x_2_48 + 35 x_2_49 + 92 x_3_8
   + 77 x_3_10 + 64 x_3_17 + 32 x_3_22 + 28 x_3_23 + 27 x_3_25 + 40 x_3_34
   + 58 x_3_40 + 52 x_3_49 + 15 x_4_5 + 24 x_4_13 + 97 x_4_15 + 69 x_4_22
   + 19 x_4_26 + 24 x_4_30 + 37 x_4_31 + 66 x_4_34 + 64 x_4_36 + 37 x_4_37
   + 45 x_4_41 + 16 x_4_42 + 65 x_4_44 + 49 x_5_6 + 77 x_5_9 + 62 x_5_10
   + 35 x_5_11 + 31 x_5_14 + 39 x_5_16 + 52 x_5_18 + 87 x_5_21 + 72 x_5_22
   + 88 x_5_23 + 50 x_5_31 + 63 x_5_34 + 37 x_5_37 + 68 x_5_38 + 43 x_5_40
   + 39 x_5_41 + 7 x_5_42 + 64 x_5_43 + 81 x_5_46 + 61 x_5_47 + 74 x_6_7
   + 110 x_6_9 + 90 x_6_10 + 89 x_6_15 + 75 x_6_20 + 87 x_6_23 + 54 x_6_29
   + 87 x_6_32 + 97 x_6_33 + 16 x_6_43 + 41 x_6_49 + 30 x_7_8 + 57 x_7_9
   + 48 x_7_10 + 8 x_7_14 + 87 x_7_23 + 72 x_7_24 + 48 x_7_32 + 66 x_7_34
   + 87 x_7_38 + 28 x_8_9 + 19 x_8_11 + 72 x_8_16 + 45 x_8_20 + 65 x_8_21
   + 77 x_8_22 + 61 x_8_27 + 57 x_8_29 + 86 x_8_31 + 13 x_8_33 + 50 x_8_37
   + 91 x_8_38 + 45 x_8_40 + 85 x_8_44 + 34 x_8_46 + 44 x_9_11 + 86 x_9_13
   + 50 x_9_14 + 49 x_9_20 + 62 x_9_21 + 88 x_9_22 + 66 x_9_23 + 84 x_9_29
   + 108 x_9_31 + 15 x_9_33 + 21 x_9_35 + 14 x_9_39 + 62 x_9_40 + 52 x_9_41
   + 99 x_9_44 + 11 x_9_46 + 91 x_9_47 + 51 x_9_48 + 61 x_10_15
   + 75 x_10_16 + 90 x_10_17 + 70 x_10_29 + 14 x_10_33 + 17 x_10_35
   + 62 x_10_36 + 88 x_10_38 + 79 x_10_44 + 60 x_11_12 + 47 x_11_13
   + 20 x_11_14 + 60 x_11_21 + 43 x_11_29 + 26 x_11_32 + 30 x_11_33
   + 26 x_11_35 + 56 x_11_36 + 16 x_11_41 + 31 x_11_42 + 73 x_12_16
   + 39 x_12_22 + 6 x_12_25 + 82 x_12_30 + 63 x_12_33 + 79 x_12_42
   + 54 x_12_44 + 36 x_12_48 + 53 x_13_16 + 104 x_13_23 + 97 x_13_24
   + 99 x_13_25 + 59 x_13_40 + 76 x_13_43 + 77 x_13_47 + 91 x_14_15
   + 38 x_14_18 + 13 x_14_19 + 58 x_14_20 + 80 x_14_21 + 65 x_14_24
   + 76 x_14_31 + 75 x_14_36 + 47 x_14_37 + 46 x_14_40 + 74 x_14_47
   + 73 x_15_17 + 46 x_15_24 + 13 x_15_25 + 21 x_15_27 + 92 x_15_30
   + 58 x_15_32 + 32 x_15_34 + 38 x_15_36 + 58 x_15_41 + 53 x_15_44
   + 46 x_15_48 + 43 x_16_26 + 42 x_16_28 + 14 x_16_31 + 82 x_16_33
   + 51 x_16_34 + 95 x_16_39 + 35 x_16_40 + 43 x_16_41 + 26 x_16_43
   + 37 x_16_44 + 46 x_16_45 + 74 x_17_18 + 96 x_17_19 + 68 x_17_20
   + 67 x_17_25 + 73 x_17_29 + 71 x_17_30 + 23 x_17_31 + 87 x_17_32
   + 42 x_17_37 + 21 x_17_44 + 22 x_17_47 + 60 x_17_48 + 53 x_18_22
   + 32 x_18_24 + 61 x_18_29 + 46 x_18_30 + 73 x_18_31 + 27 x_18_34
   + 72 x_18_38 + 54 x_18_47 + 38 x_18_49 + 79 x_19_21 + 86 x_19_22
   + 81 x_19_23 + 59 x_19_24 + 48 x_19_29 + 87 x_19_31 + 52 x_19_40
   + 99 x_19_43 + 48 x_19_48 + 29 x_20_24 + 21 x_20_27 + 76 x_20_29
   + 73 x_20_31 + 35 x_20_36 + 65 x_20_38 + 28 x_20_41 + 53 x_20_44
   + 86 x_21_31 + 54 x_21_37 + 51 x_21_39 + 49 x_21_41 + 81 x_21_42
   + 57 x_21_44 + 55 x_21_47 + 48 x_21_49 + 46 x_22_41 + 47 x_22_43
   + 15 x_22_44 + 46 x_22_45 + 12 x_23_27 + 98 x_23_29 + 85 x_23_31
   + 48 x_23_32 + 37 x_23_36 + 55 x_23_39 + 46 x_23_40 + 50 x_23_41
   + 38 x_23_48 + 40 x_24_25 + 77 x_24_30 + 36 x_24_33 + 63 x_24_36
   + 94 x_24_38 + 81 x_24_44 + 20 x_24_46 + 62 x_24_49 + 49 x_25_28
   + 79 x_25_30 + 78 x_25_31 + 64 x_25_33 + 19 x_25_34 + 67 x_25_35
   + 43 x_25_45 + 46 x_25_47 + 34 x_25_48 + 88 x_26_27 + 81 x_26_28
   + 54 x_26_31 + 60 x_26_32 + 60 x_26_33 + 82 x_26_39 + 10 x_26_42
   + 75 x_26_44 + 80 x_26_46 + 64 x_26_47 + 65 x_27_28 + 97 x_27_29
   + 82 x_27_30 + 57 x_27_37 + 81 x_27_42 + 93 x_27_43 + 44 x_28_31
   + 95 x_28_33 + 95 x_28_35 + 44 x_28_37 + 98 x_28_39 + 58 x_28_41
   + 6 x_28_44 + 59 x_28_45 + 69 x_29_32 + 75 x_29_38 + 92 x_29_39
   + 49 x_29_41 + 17 x_29_42 + 58 x_29_49 + 48 x_30_35 + 67 x_30_36
   + 75 x_30_39 + 70 x_30_43 + 73 x_30_46 + 96 x_31_33 + 63 x_31_34
   + 27 x_31_38 + 109 x_31_39 + 39 x_31_44 + 59 x_32_36 + 29 x_32_41
   + 26 x_32_45 + 26 x_32_48 + 55 x_33_34 + 6 x_33_35 + 38 x_33_45
   + 82 x_33_47 + 40 x_34_44 + 16 x_34_48 + 75 x_35_36 + 31 x_35_39
   + 50 x_35_40 + 40 x_36_41 + 15 x_36_47 + 33 x_36_48 + 48 x_37_43
   + 21 x_37_45 + 12 x_37_49 + 59 x_38_41 + 63 x_38_42 + 61 x_39_40
   + 116 x_39_43 + 48 x_39_48 + 36 x_40_42 + 60 x_40_46 + 31 x_40_47
   + 53 x_41_44 + 51 x_41_46 + 43 x_41_47 + 25 x_41_49 + 37 x_42_45
   + 54 x_42_47 + 44 x_42_48 + 44 x_43_49 + 94 x_44_46 + 11 x_44_47
   + 47 x_46_48 + 72 x_46_49 + 40 x_47_48 + 24 x_48_49 + 1683 Constant
Subject To
 c_0: y_40 = 1
 c_1_0: y_0 >= 1
 c_1_1: y_1 + y_37 + y_40 >= 1
 c_1_2: y_2 >= 1
 c_1_3: y_3 >= 1
 c_1_4: y_4 >= 1
 c_1_5: y_5 + y_26 + y_29 + y_30 + y_42 >= 1
 c_1_6: y_6 + y_31 >= 1
 c_1_7: y_7 + y_14 >= 1
 c_1_8: y_8 + y_35 >= 1
 c_1_9: y_9 >= 1
 c_1_10: y_10 + y_32 >= 1
 c_1_11: y_11 >= 1
 c_1_12: y_12 + y_21 + y_23 + y_25 >= 1
 c_1_13: y_13 + y_29 >= 1
 c_1_14: y_7 + y_14 >= 1
 c_1_15: y_15 + y_23 >= 1
 c_1_16: y_16 >= 1
 c_1_17: y_17 + y_38 >= 1
 c_1_18: y_18 >= 1
 c_1_19: y_19 >= 1
 c_1_20: y_20 >= 1
 c_1_21: y_12 + y_21 + y_23 + y_25 + y_27 >= 1
 c_1_22: y_22 + y_36 >= 1
 c_1_23: y_12 + y_15 + y_21 + y_23 + y_25 >= 1
 c_1_24: y_24 >= 1
 c_1_25: y_12 + y_21 + y_23 + y_25 >= 1
 c_1_26: y_5 + y_26 + y_29 + y_30 + y_42 >= 1
 c_1_27: y_21 + y_27 >= 1
 c_1_28: y_28 + y_44 >= 1
 c_1_29: y_5 + y_13 + y_26 + y_29 >= 1
 c_1_30: y_5 + y_26 + y_30 + y_42 >= 1
 c_1_31: y_6 + y_31 >= 1
 c_1_32: y_10 + y_32 >= 1
 c_1_33: y_33 + y_35 >= 1
 c_1_34: y_34 >= 1
 c_1_35: y_8 + y_33 + y_35 >= 1
 c_1_36: y_22 + y_36 >= 1
 c_1_37: y_1 + y_37 + y_40 >= 1
 c_1_38: y_17 + y_38 >= 1
 c_1_39: y_39 + y_46 >= 1
 c_1_40: y_1 + y_37 + y_40 >= 1
 c_1_41: y_41 + y_45 >= 1
 c_1_42: y_5 + y_26 + y_30 + y_42 >= 1
 c_1_43: y_43 >= 1
 c_1_44: y_28 + y_44 >= 1
 c_1_45: y_41 + y_45 + y_48 >= 1
 c_1_46: y_39 + y_46 >= 1
 c_1_47: y_47 >= 1
 c_1_48: y_45 + y_48 >= 1
 c_1_49: y_49 >= 1
 c_2_0: - 2 y_0 + x_0_2 + x_0_16 + x_0_20 + x_0_21 + x_0_25 + x_0_27
   + x_0_28 + x_0_29 + x_0_34 + x_0_36 + x_0_41 + x_0_43 + x_0_47 = 0
 c_2_1: - 2 y_1 + x_1_6 + x_1_7 + x_1_11 + x_1_13 + x_1_16 + x_1_19
   + x_1_20 + x_1_21 + x_1_26 + x_1_28 + x_1_34 + x_1_39 + x_1_40 + x_1_41
   + x_1_46 + x_1_47 + x_1_49 = 0
 c_2_2: - 2 y_2 + x_0_2 + x_2_7 + x_2_11 + x_2_12 + x_2_17 + x_2_23
   + x_2_24 + x_2_27 + x_2_28 + x_2_30 + x_2_31 + x_2_33 + x_2_34 + x_2_42
   + x_2_43 + x_2_45 + x_2_46 + x_2_48 + x_2_49 = 0
 c_2_3: - 2 y_3 + x_3_8 + x_3_10 + x_3_17 + x_3_22 + x_3_23 + x_3_25
   + x_3_34 + x_3_40 + x_3_49 = 0
 c_2_4: - 2 y_4 + x_4_5 + x_4_13 + x_4_15 + x_4_22 + x_4_26 + x_4_30
   + x_4_31 + x_4_34 + x_4_36 + x_4_37 + x_4_41 + x_4_42 + x_4_44 = 0
 c_2_5: - 2 y_5 + x_4_5 + x_5_6 + x_5_9 + x_5_10 + x_5_11 + x_5_14 + x_5_16
   + x_5_18 + x_5_21 + x_5_22 + x_5_23 + x_5_31 + x_5_34 + x_5_37 + x_5_38
   + x_5_40 + x_5_41 + x_5_42 + x_5_43 + x_5_46 + x_5_47 = 0
 c_2_6: - 2 y_6 + x_1_6 + x_5_6 + x_6_7 + x_6_9 + x_6_10 + x_6_15 + x_6_20
   + x_6_23 + x_6_29 + x_6_32 + x_6_33 + x_6_43 + x_6_49 = 0
 c_2_7: - 2 y_7 + x_1_7 + x_2_7 + x_6_7 + x_7_8 + x_7_9 + x_7_10 + x_7_14
   + x_7_23 + x_7_24 + x_7_32 + x_7_34 + x_7_38 = 0
 c_2_8: - 2 y_8 + x_3_8 + x_7_8 + x_8_9 + x_8_11 + x_8_16 + x_8_20 + x_8_21
   + x_8_22 + x_8_27 + x_8_29 + x_8_31 + x_8_33 + x_8_37 + x_8_38 + x_8_40
   + x_8_44 + x_8_46 = 0
 c_2_9: - 2 y_9 + x_5_9 + x_6_9 + x_7_9 + x_8_9 + x_9_11 + x_9_13 + x_9_14
   + x_9_20 + x_9_21 + x_9_22 + x_9_23 + x_9_29 + x_9_31 + x_9_33 + x_9_35
   + x_9_39 + x_9_40 + x_9_41 + x_9_44 + x_9_46 + x_9_47 + x_9_48 = 0
 c_2_10: - 2 y_10 + x_3_10 + x_5_10 + x_6_10 + x_7_10 + x_10_15 + x_10_16
   + x_10_17 + x_10_29 + x_10_33 + x_10_35 + x_10_36 + x_10_38 + x_10_44
   = 0
 c_2_11: - 2 y_11 + x_1_11 + x_2_11 + x_5_11 + x_8_11 + x_9_11 + x_11_12
   + x_11_13 + x_11_14 + x_11_21 + x_11_29 + x_11_32 + x_11_33 + x_11_35
   + x_11_36 + x_11_41 + x_11_42 = 0
 c_2_12: - 2 y_12 + x_2_12 + x_11_12 + x_12_16 + x_12_22 + x_12_25
   + x_12_30 + x_12_33 + x_12_42 + x_12_44 + x_12_48 = 0
 c_2_13: - 2 y_13 + x_1_13 + x_4_13 + x_9_13 + x_11_13 + x_13_16 + x_13_23
   + x_13_24 + x_13_25 + x_13_40 + x_13_43 + x_13_47 = 0
 c_2_14: - 2 y_14 + x_5_14 + x_7_14 + x_9_14 + x_11_14 + x_14_15 + x_14_18
   + x_14_19 + x_14_20 + x_14_21 + x_14_24 + x_14_31 + x_14_36 + x_14_37
   + x_14_40 + x_14_47 = 0
 c_2_15: - 2 y_15 + x_4_15 + x_6_15 + x_10_15 + x_14_15 + x_15_17 + x_15_24
   + x_15_25 + x_15_27 + x_15_30 + x_15_32 + x_15_34 + x_15_36 + x_15_41
   + x_15_44 + x_15_48 = 0
 c_2_16: - 2 y_16 + x_0_16 + x_1_16 + x_5_16 + x_8_16 + x_10_16 + x_12_16
   + x_13_16 + x_16_26 + x_16_28 + x_16_31 + x_16_33 + x_16_34 + x_16_39
   + x_16_40 + x_16_41 + x_16_43 + x_16_44 + x_16_45 = 0
 c_2_17: - 2 y_17 + x_2_17 + x_3_17 + x_10_17 + x_15_17 + x_17_18 + x_17_19
   + x_17_20 + x_17_25 + x_17_29 + x_17_30 + x_17_31 + x_17_32 + x_17_37
   + x_17_44 + x_17_47 + x_17_48 = 0
 c_2_18: - 2 y_18 + x_5_18 + x_14_18 + x_17_18 + x_18_22 + x_18_24
   + x_18_29 + x_18_30 + x_18_31 + x_18_34 + x_18_38 + x_18_47 + x_18_49
   = 0
 c_2_19: - 2 y_19 + x_1_19 + x_14_19 + x_17_19 + x_19_21 + x_19_22
   + x_19_23 + x_19_24 + x_19_29 + x_19_31 + x_19_40 + x_19_43 + x_19_48
   = 0
 c_2_20: - 2 y_20 + x_0_20 + x_1_20 + x_6_20 + x_8_20 + x_9_20 + x_14_20
   + x_17_20 + x_20_24 + x_20_27 + x_20_29 + x_20_31 + x_20_36 + x_20_38
   + x_20_41 + x_20_44 = 0
 c_2_21: - 2 y_21 + x_0_21 + x_1_21 + x_5_21 + x_8_21 + x_9_21 + x_11_21
   + x_14_21 + x_19_21 + x_21_31 + x_21_37 + x_21_39 + x_21_41 + x_21_42
   + x_21_44 + x_21_47 + x_21_49 = 0
 c_2_22: - 2 y_22 + x_3_22 + x_4_22 + x_5_22 + x_8_22 + x_9_22 + x_12_22
   + x_18_22 + x_19_22 + x_22_41 + x_22_43 + x_22_44 + x_22_45 = 0
 c_2_23: - 2 y_23 + x_2_23 + x_3_23 + x_5_23 + x_6_23 + x_7_23 + x_9_23
   + x_13_23 + x_19_23 + x_23_27 + x_23_29 + x_23_31 + x_23_32 + x_23_36
   + x_23_39 + x_23_40 + x_23_41 + x_23_48 = 0
 c_2_24: - 2 y_24 + x_2_24 + x_7_24 + x_13_24 + x_14_24 + x_15_24 + x_18_24
   + x_19_24 + x_20_24 + x_24_25 + x_24_30 + x_24_33 + x_24_36 + x_24_38
   + x_24_44 + x_24_46 + x_24_49 = 0
 c_2_25: - 2 y_25 + x_0_25 + x_3_25 + x_12_25 + x_13_25 + x_15_25 + x_17_25
   + x_24_25 + x_25_28 + x_25_30 + x_25_31 + x_25_33 + x_25_34 + x_25_35
   + x_25_45 + x_25_47 + x_25_48 = 0
 c_2_26: - 2 y_26 + x_1_26 + x_4_26 + x_16_26 + x_26_27 + x_26_28 + x_26_31
   + x_26_32 + x_26_33 + x_26_39 + x_26_42 + x_26_44 + x_26_46 + x_26_47
   = 0
 c_2_27: - 2 y_27 + x_0_27 + x_2_27 + x_8_27 + x_15_27 + x_20_27 + x_23_27
   + x_26_27 + x_27_28 + x_27_29 + x_27_30 + x_27_37 + x_27_42 + x_27_43
   = 0
 c_2_28: - 2 y_28 + x_0_28 + x_1_28 + x_2_28 + x_16_28 + x_25_28 + x_26_28
   + x_27_28 + x_28_31 + x_28_33 + x_28_35 + x_28_37 + x_28_39 + x_28_41
   + x_28_44 + x_28_45 = 0
 c_2_29: - 2 y_29 + x_0_29 + x_6_29 + x_8_29 + x_9_29 + x_10_29 + x_11_29
   + x_17_29 + x_18_29 + x_19_29 + x_20_29 + x_23_29 + x_27_29 + x_29_32
   + x_29_38 + x_29_39 + x_29_41 + x_29_42 + x_29_49 = 0
 c_2_30: - 2 y_30 + x_2_30 + x_4_30 + x_12_30 + x_15_30 + x_17_30 + x_18_30
   + x_24_30 + x_25_30 + x_27_30 + x_30_35 + x_30_36 + x_30_39 + x_30_43
   + x_30_46 = 0
 c_2_31: - 2 y_31 + x_2_31 + x_4_31 + x_5_31 + x_8_31 + x_9_31 + x_14_31
   + x_16_31 + x_17_31 + x_18_31 + x_19_31 + x_20_31 + x_21_31 + x_23_31
   + x_25_31 + x_26_31 + x_28_31 + x_31_33 + x_31_34 + x_31_38 + x_31_39
   + x_31_44 = 0
 c_2_32: - 2 y_32 + x_6_32 + x_7_32 + x_11_32 + x_15_32 + x_17_32 + x_23_32
   + x_26_32 + x_29_32 + x_32_36 + x_32_41 + x_32_45 + x_32_48 = 0
 c_2_33: - 2 y_33 + x_2_33 + x_6_33 + x_8_33 + x_9_33 + x_10_33 + x_11_33
   + x_12_33 + x_16_33 + x_24_33 + x_25_33 + x_26_33 + x_28_33 + x_31_33
   + x_33_34 + x_33_35 + x_33_45 + x_33_47 = 0
 c_2_34: - 2 y_34 + x_0_34 + x_1_34 + x_2_34 + x_3_34 + x_4_34 + x_5_34
   + x_7_34 + x_15_34 + x_16_34 + x_18_34 + x_25_34 + x_31_34 + x_33_34
   + x_34_44 + x_34_48 = 0
 c_2_35: - 2 y_35 + x_9_35 + x_10_35 + x_11_35 + x_25_35 + x_28_35
   + x_30_35 + x_33_35 + x_35_36 + x_35_39 + x_35_40 = 0
 c_2_36: - 2 y_36 + x_0_36 + x_4_36 + x_10_36 + x_11_36 + x_14_36 + x_15_36
   + x_20_36 + x_23_36 + x_24_36 + x_30_36 + x_32_36 + x_35_36 + x_36_41
   + x_36_47 + x_36_48 = 0
 c_2_37: - 2 y_37 + x_4_37 + x_5_37 + x_8_37 + x_14_37 + x_17_37 + x_21_37
   + x_27_37 + x_28_37 + x_37_43 + x_37_45 + x_37_49 = 0
 c_2_38: - 2 y_38 + x_5_38 + x_7_38 + x_8_38 + x_10_38 + x_18_38 + x_20_38
   + x_24_38 + x_29_38 + x_31_38 + x_38_41 + x_38_42 = 0
 c_2_39: - 2 y_39 + x_1_39 + x_9_39 + x_16_39 + x_21_39 + x_23_39 + x_26_39
   + x_28_39 + x_29_39 + x_30_39 + x_31_39 + x_35_39 + x_39_40 + x_39_43
   + x_39_48 = 0
 c_2_40: - 2 y_40 + x_1_40 + x_3_40 + x_5_40 + x_8_40 + x_9_40 + x_13_40
   + x_14_40 + x_16_40 + x_19_40 + x_23_40 + x_35_40 + x_39_40 + x_40_42
   + x_40_46 + x_40_47 = 0
 c_2_41: - 2 y_41 + x_0_41 + x_1_41 + x_4_41 + x_5_41 + x_9_41 + x_11_41
   + x_15_41 + x_16_41 + x_20_41 + x_21_41 + x_22_41 + x_23_41 + x_28_41
   + x_29_41 + x_32_41 + x_36_41 + x_38_41 + x_41_44 + x_41_46 + x_41_47
   + x_41_49 = 0
 c_2_42: - 2 y_42 + x_2_42 + x_4_42 + x_5_42 + x_11_42 + x_12_42 + x_21_42
   + x_26_42 + x_27_42 + x_29_42 + x_38_42 + x_40_42 + x_42_45 + x_42_47
   + x_42_48 = 0
 c_2_43: - 2 y_43 + x_0_43 + x_2_43 + x_5_43 + x_6_43 + x_13_43 + x_16_43
   + x_19_43 + x_22_43 + x_27_43 + x_30_43 + x_37_43 + x_39_43 + x_43_49
   = 0
 c_2_44: - 2 y_44 + x_4_44 + x_8_44 + x_9_44 + x_10_44 + x_12_44 + x_15_44
   + x_16_44 + x_17_44 + x_20_44 + x_21_44 + x_22_44 + x_24_44 + x_26_44
   + x_28_44 + x_31_44 + x_34_44 + x_41_44 + x_44_46 + x_44_47 = 0
 c_2_45: - 2 y_45 + x_2_45 + x_16_45 + x_22_45 + x_25_45 + x_28_45
   + x_32_45 + x_33_45 + x_37_45 + x_42_45 = 0
 c_2_46: - 2 y_46 + x_1_46 + x_2_46 + x_5_46 + x_8_46 + x_9_46 + x_24_46
   + x_26_46 + x_30_46 + x_40_46 + x_41_46 + x_44_46 + x_46_48 + x_46_49
   = 0
 c_2_47: - 2 y_47 + x_0_47 + x_1_47 + x_5_47 + x_9_47 + x_13_47 + x_14_47
   + x_17_47 + x_18_47 + x_21_47 + x_25_47 + x_26_47 + x_33_47 + x_36_47
   + x_40_47 + x_41_47 + x_42_47 + x_44_47 + x_47_48 = 0
 c_2_48: - 2 y_48 + x_2_48 + x_9_48 + x_12_48 + x_15_48 + x_17_48 + x_19_48
   + x_23_48 + x_25_48 + x_32_48 + x_34_48 + x_36_48 + x_39_48 + x_42_48
   + x_46_48 + x_47_48 + x_48_49 = 0
 c_2_49: - 2 y_49 + x_1_49 + x_2_49 + x_3_49 + x_6_49 + x_18_49 + x_21_49
   + x_24_49 + x_29_49 + x_37_49 + x_41_49 + x_43_49 + x_46_49 + x_48_49
   = 0
Bounds
 Constant = 1
Binaries
 y_0 y_1 y_2 y_3 y_4 y_5 y_6 y_7 y_8 y_9 y_10 y_11 y_12 y_13 y_14 y_15 y_16
 y_17 y_18 y_19 y_20 y_21 y_22 y_23 y_24 y_25 y_26 y_27 y_28 y_29 y_30 y_31
 y_32 y_33 y_34 y_35 y_36 y_37 y_38 y_39 y_40 y_41 y_42 y_43 y_44 y_45 y_46
 y_47 y_48 y_49 x_0_2 x_0_16 x_0_20 x_0_21 x_0_25 x_0_27 x_0_28 x_0_29
 x_0_34 x_0_36 x_0_41 x_0_43 x_0_47 x_1_6 x_1_7 x_1_11 x_1_13 x_1_16 x_1_19
 x_1_20 x_1_21 x_1_26 x_1_28 x_1_34 x_1_39 x_1_40 x_1_41 x_1_46 x_1_47
 x_1_49 x_2_7 x_2_11 x_2_12 x_2_17 x_2_23 x_2_24 x_2_27 x_2_28 x_2_30
 x_2_31 x_2_33 x_2_34 x_2_42 x_2_43 x_2_45 x_2_46 x_2_48 x_2_49 x_3_8
 x_3_10 x_3_17 x_3_22 x_3_23 x_3_25 x_3_34 x_3_40 x_3_49 x_4_5 x_4_13
 x_4_15 x_4_22 x_4_26 x_4_30 x_4_31 x_4_34 x_4_36 x_4_37 x_4_41 x_4_42
 x_4_44 x_5_6 x_5_9 x_5_10 x_5_11 x_5_14 x_5_16 x_5_18 x_5_21 x_5_22 x_5_23
 x_5_31 x_5_34 x_5_37 x_5_38 x_5_40 x_5_41 x_5_42 x_5_43 x_5_46 x_5_47
 x_6_7 x_6_9 x_6_10 x_6_15 x_6_20 x_6_23 x_6_29 x_6_32 x_6_33 x_6_43 x_6_49
 x_7_8 x_7_9 x_7_10 x_7_14 x_7_23 x_7_24 x_7_32 x_7_34 x_7_38 x_8_9 x_8_11
 x_8_16 x_8_20 x_8_21 x_8_22 x_8_27 x_8_29 x_8_31 x_8_33 x_8_37 x_8_38
 x_8_40 x_8_44 x_8_46 x_9_11 x_9_13 x_9_14 x_9_20 x_9_21 x_9_22 x_9_23
 x_9_29 x_9_31 x_9_33 x_9_35 x_9_39 x_9_40 x_9_41 x_9_44 x_9_46 x_9_47
 x_9_48 x_10_15 x_10_16 x_10_17 x_10_29 x_10_33 x_10_35 x_10_36 x_10_38
 x_10_44 x_11_12 x_11_13 x_11_14 x_11_21 x_11_29 x_11_32 x_11_33 x_11_35
 x_11_36 x_11_41 x_11_42 x_12_16 x_12_22 x_12_25 x_12_30 x_12_33 x_12_42
 x_12_44 x_12_48 x_13_16 x_13_23 x_13_24 x_13_25 x_13_40 x_13_43 x_13_47
 x_14_15 x_14_18 x_14_19 x_14_20 x_14_21 x_14_24 x_14_31 x_14_36 x_14_37
 x_14_40 x_14_47 x_15_17 x_15_24 x_15_25 x_15_27 x_15_30 x_15_32 x_15_34
 x_15_36 x_15_41 x_15_44 x_15_48 x_16_26 x_16_28 x_16_31 x_16_33 x_16_34
 x_16_39 x_16_40 x_16_41 x_16_43 x_16_44 x_16_45 x_17_18 x_17_19 x_17_20
 x_17_25 x_17_29 x_17_30 x_17_31 x_17_32 x_17_37 x_17_44 x_17_47 x_17_48
 x_18_22 x_18_24 x_18_29 x_18_30 x_18_31 x_18_34 x_18_38 x_18_47 x_18_49
 x_19_21 x_19_22 x_19_23 x_19_24 x_19_29 x_19_31 x_19_40 x_19_43 x_19_48
 x_20_24 x_20_27 x_20_29 x_20_31 x_20_36 x_20_38 x_20_41 x_20_44 x_21_31
 x_21_37 x_21_39 x_21_41 x_21_42 x_21_44 x_21_47 x_21_49 x_22_41 x_22_43
 x_22_44 x_22_45 x_23_27 x_23_29 x_23_31 x_23_32 x_23_36 x_23_39 x_23_40
 x_23_41 x_23_48 x_24_25 x_24_30 x_24_33 x_24_36 x_24_38 x_24_44 x_24_46
 x_24_49 x_25_28 x_25_30 x_25_31 x_25_33 x_25_34 x_25_35 x_25_45 x_25_47
 x_25_48 x_26_27 x_26_28 x_26_31 x_26_32 x_26_33 x_26_39 x_26_42 x_26_44
 x_26_46 x_26_47 x_27_28 x_27_29 x_27_30 x_27_37 x_27_42 x_27_43 x_28_31
 x_28_33 x_28_35 x_28_37 x_28_39 x_28_41 x_28_44 x_28_45 x_29_32 x_29_38
 x_29_39 x_29_41 x_29_42 x_29_49 x_30_35 x_30_36 x_30_39 x_30_43 x_30_46
 x_31_33 x_31_34 x_31_38 x_31_39 x_31_44 x_32_36 x_32_41 x_32_45 x_32_48
 x_33_34 x_33_35 x_33_45 x_33_47 x_34_44 x_34_48 x_35_36 x_35_39 x_35_40
 x_36_41 x_36_47 x_36_48 x_37_43 x_37_45 x_37_49 x_38_41 x_38_42 x_39_40
 x_39_43 x_39_48 x_40_42 x_40_46 x_40_47 x_41_44 x_41_46 x_41_47 x_41_49
 x_42_45 x_42_47 x_42_48 x_43_49 x_44_46 x_44_47 x_46_48 x_46_49 x_47_48
 x_48_49
End
